benchmarks_vrp/CMT4/fixed_c_size/CMT4_10.vrp
NAME: CMT4_10
TYPE: CVRP
COMMENT: 1028.42 - Cluster Nr.10
DIMENSION: 18
CAPACITY: 200
EDGE_WEIGHT_TYPE: EUC_2D
NODE_COORD_TYPE: TWOD_COORDS
NODE_COORD_SECTION: 
17 10 17
18 4 18
13 20 20
12 24 12
8 12 24
15 11 14
2 16 22
3 21 10
9 13 13
4 23 3
10 35 35
1 5 5
5 15 19
16 18 18
11 5 6
6 15 10
14 10 20
7 19 21
DEPOT_SECTION: 
10
-1
DEMAND_SECTION: 
8 13
16 17
14 19
3 13
10 0
2 41
11 7
17 27
5 1
9 9
7 10
6 20
4 7
13 8
12 5
18 35
1 16
15 18
EOF
