benchmarks_vrp/CMT4/fixed_c_size/CMT4_10.tour
NAME: CMT4_10 solution
TYPE: TOUR
TOUR_SECTION:
10 7 2 5 16 13 -1
10 12 3 4 6 9 15 1 11 18 17 14 8 -1
-1
EOF